p cnf 10 50
6 3 5 0
-9 10 -2 0
9 -5 -1 0
1 -6 -10 0
-7 6 -3 0
-3 -10 -8 0
-1 -6 -3 0
-4 -7 3 0
-2 3 -10 0
-4 5 -2 0
1 3 5 0
-5 -4 2 0
3 -7 -10 0
-8 -10 9 0
-4 -2 7 0
4 1 -9 0
7 3 4 0
8 7 -5 0
9 5 -7 0
-1 -7 10 0
1 -10 -9 0
9 10 -3 0
10 -2 9 0
9 -7 5 0
5 3 -4 0
-7 4 -2 0
-7 -8 6 0
5 9 2 0
-4 -8 6 0
-10 -7 -8 0
9 -2 7 0
-8 -10 6 0
2 -6 8 0
-9 -5 -8 0
2 -7 -6 0
-8 3 -6 0
-5 6 7 0
-5 1 -8 0
-3 2 -4 0
-4 -7 -6 0
-3 2 9 0
-3 -4 9 0
-5 -4 -2 0
6 -3 2 0
-10 4 -3 0
8 -9 5 0
1 3 -6 0
-8 -4 3 0
-3 -9 4 0
-8 -5 -7 0
